56416
12, 9, 14, 2, 45, 11, 52, 16, 10, 22, 21, 23, 53, 34, 54, 49, 19, 41, 32, 44, 8, 38, 50, 20, 24, 35, 5, 13, 51, 37, 7, 40, 43, 3, 6, 28, 55, 26, 48, 17, 29, 39, 46, 36, 15, 25, 31, 27, 1, 33, 42, 18, 4, 30, 47
